XYZ: B105                               
   1.00000000000000     
     5.4335888387604925    3.1370839785690157    7.8127250851365462
    -5.4335888387604925    3.1370839785690157    7.8127250851365462
     0.0000000000000000   -6.2741679571380313    7.8127250851365462
   B 
   105
Direct
  0.5000000000000000  0.5000000000000000  0.5000000000000000
  0.3846920001480849  0.3846920001480849  0.3846920001480849
  0.6153079998519150  0.6153079998519150  0.6153079998519150
  0.3806769429590352  0.2135462681448778  0.3806769429590352
  0.3806769429590352  0.3806769429590352  0.2135462681448778
  0.2135462681448778  0.3806769429590352  0.3806769429590352
  0.7864537318551151  0.6193230570409648  0.6193230570409648
  0.6193230570409648  0.6193230570409648  0.7864537318551151
  0.6193230570409648  0.7864537318551151  0.6193230570409648
  0.4893013050384499  0.2217746923998663  0.4893013050384499
  0.4893013050384499  0.4893013050384499  0.2217746923998663
  0.2217746923998663  0.4893013050384499  0.4893013050384499
  0.7782253076001338  0.5106986949615502  0.5106986949615502
  0.5106986949615502  0.5106986949615502  0.7782253076001338
  0.5106986949615502  0.7782253076001338  0.5106986949615502
  0.3848862451485066  0.5680763761319647  0.3848862451485066
  0.3848862451485066  0.3848862451485066  0.5680763761319647
  0.5680763761319647  0.3848862451485066  0.3848862451485066
  0.4319236238680352  0.6151137548514933  0.6151137548514933
  0.6151137548514933  0.6151137548514933  0.4319236238680352
  0.6151137548514933  0.4319236238680352  0.6151137548514933
  0.1989827926894743  0.5052445217174920  0.1989827926894743
  0.1989827926894743  0.1989827926894743  0.5052445217174920
  0.5052445217174920  0.1989827926894743  0.1989827926894743
  0.4947554782824938  0.8010172073105257  0.8010172073105257
  0.8010172073105257  0.8010172073105257  0.4947554782824938
  0.8010172073105257  0.4947554782824938  0.8010172073105257
  0.1992432418794275  0.6857277888616902  0.1992432418794275
  0.1992432418794275  0.1992432418794275  0.6857277888616902
  0.6857277888616902  0.1992432418794275  0.1992432418794275
  0.3142722111383098  0.8007567581205725  0.8007567581205725
  0.8007567581205725  0.8007567581205725  0.3142722111383098
  0.8007567581205725  0.3142722111383098  0.8007567581205725
  0.1034403330076872  0.4901783051172359  0.1034403330076872
  0.1034403330076872  0.1034403330076872  0.4901783051172359
  0.4901783051172359  0.1034403330076872  0.1034403330076872
  0.5098216948827641  0.8965596669923056  0.8965596669923127
  0.8965596669923127  0.8965596669923127  0.5098216948827641
  0.8965596669923056  0.5098216948827641  0.8965596669923127
  0.9967314183679157  0.6583036677939736  0.9967314183679157
  0.9967314183679157  0.9967314183679157  0.6583036677939736
  0.6583036677939736  0.9967314183679157  0.9967314183679157
  0.3416963322060264  0.0032685816320844  0.0032685816320844
  0.0032685816320844  0.0032685816320844  0.3416963322060264
  0.0032685816320844  0.3416963322060264  0.0032685816320844
  0.1005771051104010  0.8399379740978811  0.1005771051104010
  0.1005771051104010  0.1005771051104010  0.8399379740978811
  0.8399379740978811  0.1005771051104010  0.1005771051104010
  0.1600620259021119  0.8994228948895989  0.8994228948895989
  0.8994228948895989  0.8994228948895989  0.1600620259021119
  0.8994228948895989  0.1600620259021119  0.8994228948895989
  0.0038303724069192  0.1616117241921176  0.0038303724069192
  0.0038303724069192  0.0038303724069192  0.1616117241921247
  0.1616117241921176  0.0038303724069192  0.0038303724069192
  0.8383882758078823  0.9961696275930808  0.9961696275930808
  0.9961696275930808  0.9961696275930808  0.8383882758078752
  0.9961696275930808  0.8383882758078823  0.9961696275930808
  0.1783851725134588  0.3453844136893672  0.0038544834650024
  0.0038544834650024  0.1783851725134588  0.3453844136893672
  0.3453844136893672  0.0038544834650024  0.1783851725134588
  0.6546155863106399  0.8216148274865482  0.9961455165349976
  0.8216148274865482  0.9961455165349976  0.6546155863106399
  0.9961455165349976  0.6546155863106399  0.8216148274865482
  0.8216148274865482  0.6546155863106399  0.9961455165349976
  0.9961455165349976  0.8216148274865482  0.6546155863106399
  0.6546155863106399  0.9961455165349976  0.8216148274865482
  0.3453844136893672  0.1783851725134588  0.0038544834650024
  0.1783851725134588  0.0038544834650024  0.3453844136893672
  0.0038544834650024  0.3453844136893672  0.1783851725134588
  0.1659291790298268  0.5508310009654297  0.8952525203608911
  0.8952525203608911  0.1659291790298268  0.5508310009654297
  0.5508310009654297  0.8952525203608911  0.1659291790298268
  0.4491689990345702  0.8340708209701732  0.1047474796391090
  0.8340708209701732  0.1047474796391090  0.4491689990345702
  0.1047474796391090  0.4491689990345702  0.8340708209701732
  0.8340708209701732  0.4491689990345702  0.1047474796391090
  0.1047474796391090  0.8340708209701732  0.4491689990345702
  0.4491689990345702  0.1047474796391090  0.8340708209701732
  0.5508310009654297  0.1659291790298268  0.8952525203608911
  0.1659291790298268  0.8952525203608911  0.5508310009654297
  0.8952525203608911  0.5508310009654297  0.1659291790298268
  0.3759264325259375  0.6839524737660541  0.2005970857669693
  0.2005970857669693  0.3759264325259446  0.6839524737660541
  0.6839524737660541  0.2005970857669693  0.3759264325259446
  0.3160475262339458  0.6240735674740696  0.7994029142330308
  0.6240735674740696  0.7994029142330308  0.3160475262339458
  0.7994029142330379  0.3160475262339458  0.6240735674740696
  0.6240735674740696  0.3160475262339458  0.7994029142330308
  0.7994029142330308  0.6240735674740696  0.3160475262339458
  0.3160475262339458  0.7994029142330379  0.6240735674740696
  0.6839524737660541  0.3759264325259375  0.2005970857669693
  0.3759264325259446  0.2005970857669693  0.6839524737660541
  0.2005970857669693  0.6839524737660541  0.3759264325259446
  0.3640446219508520  0.5792513738004161  0.0960811441493951
  0.0960811441493951  0.3640446219508520  0.5792513738004161
  0.5792513738004161  0.0960811441493951  0.3640446219508520
  0.4207486261995838  0.6359553780491480  0.9039188558506048
  0.6359553780491480  0.9039188558506048  0.4207486261995838
  0.9039188558506048  0.4207486261995838  0.6359553780491480
  0.6359553780491480  0.4207486261995838  0.9039188558506048
  0.9039188558506048  0.6359553780491480  0.4207486261995838
  0.4207486261995838  0.9039188558506048  0.6359553780491480
  0.5792513738004161  0.3640446219508520  0.0960811441493951
  0.3640446219508520  0.0960811441493951  0.5792513738004161
  0.0960811441493951  0.5792513738004161  0.3640446219508520
 
  0.00000000E+00  0.00000000E+00  0.00000000E+00
  0.00000000E+00  0.00000000E+00  0.00000000E+00
  0.00000000E+00  0.00000000E+00  0.00000000E+00
  0.00000000E+00  0.00000000E+00  0.00000000E+00
  0.00000000E+00  0.00000000E+00  0.00000000E+00
  0.00000000E+00  0.00000000E+00  0.00000000E+00
  0.00000000E+00  0.00000000E+00  0.00000000E+00
  0.00000000E+00  0.00000000E+00  0.00000000E+00
  0.00000000E+00  0.00000000E+00  0.00000000E+00
  0.00000000E+00  0.00000000E+00  0.00000000E+00
  0.00000000E+00  0.00000000E+00  0.00000000E+00
  0.00000000E+00  0.00000000E+00  0.00000000E+00
  0.00000000E+00  0.00000000E+00  0.00000000E+00
  0.00000000E+00  0.00000000E+00  0.00000000E+00
  0.00000000E+00  0.00000000E+00  0.00000000E+00
  0.00000000E+00  0.00000000E+00  0.00000000E+00
  0.00000000E+00  0.00000000E+00  0.00000000E+00
  0.00000000E+00  0.00000000E+00  0.00000000E+00
  0.00000000E+00  0.00000000E+00  0.00000000E+00
  0.00000000E+00  0.00000000E+00  0.00000000E+00
  0.00000000E+00  0.00000000E+00  0.00000000E+00
  0.00000000E+00  0.00000000E+00  0.00000000E+00
  0.00000000E+00  0.00000000E+00  0.00000000E+00
  0.00000000E+00  0.00000000E+00  0.00000000E+00
  0.00000000E+00  0.00000000E+00  0.00000000E+00
  0.00000000E+00  0.00000000E+00  0.00000000E+00
  0.00000000E+00  0.00000000E+00  0.00000000E+00
  0.00000000E+00  0.00000000E+00  0.00000000E+00
  0.00000000E+00  0.00000000E+00  0.00000000E+00
  0.00000000E+00  0.00000000E+00  0.00000000E+00
  0.00000000E+00  0.00000000E+00  0.00000000E+00
  0.00000000E+00  0.00000000E+00  0.00000000E+00
  0.00000000E+00  0.00000000E+00  0.00000000E+00
  0.00000000E+00  0.00000000E+00  0.00000000E+00
  0.00000000E+00  0.00000000E+00  0.00000000E+00
  0.00000000E+00  0.00000000E+00  0.00000000E+00
  0.00000000E+00  0.00000000E+00  0.00000000E+00
  0.00000000E+00  0.00000000E+00  0.00000000E+00
  0.00000000E+00  0.00000000E+00  0.00000000E+00
  0.00000000E+00  0.00000000E+00  0.00000000E+00
  0.00000000E+00  0.00000000E+00  0.00000000E+00
  0.00000000E+00  0.00000000E+00  0.00000000E+00
  0.00000000E+00  0.00000000E+00  0.00000000E+00
  0.00000000E+00  0.00000000E+00  0.00000000E+00
  0.00000000E+00  0.00000000E+00  0.00000000E+00
  0.00000000E+00  0.00000000E+00  0.00000000E+00
  0.00000000E+00  0.00000000E+00  0.00000000E+00
  0.00000000E+00  0.00000000E+00  0.00000000E+00
  0.00000000E+00  0.00000000E+00  0.00000000E+00
  0.00000000E+00  0.00000000E+00  0.00000000E+00
  0.00000000E+00  0.00000000E+00  0.00000000E+00
  0.00000000E+00  0.00000000E+00  0.00000000E+00
  0.00000000E+00  0.00000000E+00  0.00000000E+00
  0.00000000E+00  0.00000000E+00  0.00000000E+00
  0.00000000E+00  0.00000000E+00  0.00000000E+00
  0.00000000E+00  0.00000000E+00  0.00000000E+00
  0.00000000E+00  0.00000000E+00  0.00000000E+00
  0.00000000E+00  0.00000000E+00  0.00000000E+00
  0.00000000E+00  0.00000000E+00  0.00000000E+00
  0.00000000E+00  0.00000000E+00  0.00000000E+00
  0.00000000E+00  0.00000000E+00  0.00000000E+00
  0.00000000E+00  0.00000000E+00  0.00000000E+00
  0.00000000E+00  0.00000000E+00  0.00000000E+00
  0.00000000E+00  0.00000000E+00  0.00000000E+00
  0.00000000E+00  0.00000000E+00  0.00000000E+00
  0.00000000E+00  0.00000000E+00  0.00000000E+00
  0.00000000E+00  0.00000000E+00  0.00000000E+00
  0.00000000E+00  0.00000000E+00  0.00000000E+00
  0.00000000E+00  0.00000000E+00  0.00000000E+00
  0.00000000E+00  0.00000000E+00  0.00000000E+00
  0.00000000E+00  0.00000000E+00  0.00000000E+00
  0.00000000E+00  0.00000000E+00  0.00000000E+00
  0.00000000E+00  0.00000000E+00  0.00000000E+00
  0.00000000E+00  0.00000000E+00  0.00000000E+00
  0.00000000E+00  0.00000000E+00  0.00000000E+00
  0.00000000E+00  0.00000000E+00  0.00000000E+00
  0.00000000E+00  0.00000000E+00  0.00000000E+00
  0.00000000E+00  0.00000000E+00  0.00000000E+00
  0.00000000E+00  0.00000000E+00  0.00000000E+00
  0.00000000E+00  0.00000000E+00  0.00000000E+00
  0.00000000E+00  0.00000000E+00  0.00000000E+00
  0.00000000E+00  0.00000000E+00  0.00000000E+00
  0.00000000E+00  0.00000000E+00  0.00000000E+00
  0.00000000E+00  0.00000000E+00  0.00000000E+00
  0.00000000E+00  0.00000000E+00  0.00000000E+00
  0.00000000E+00  0.00000000E+00  0.00000000E+00
  0.00000000E+00  0.00000000E+00  0.00000000E+00
  0.00000000E+00  0.00000000E+00  0.00000000E+00
  0.00000000E+00  0.00000000E+00  0.00000000E+00
  0.00000000E+00  0.00000000E+00  0.00000000E+00
  0.00000000E+00  0.00000000E+00  0.00000000E+00
  0.00000000E+00  0.00000000E+00  0.00000000E+00
  0.00000000E+00  0.00000000E+00  0.00000000E+00
  0.00000000E+00  0.00000000E+00  0.00000000E+00
  0.00000000E+00  0.00000000E+00  0.00000000E+00
  0.00000000E+00  0.00000000E+00  0.00000000E+00
  0.00000000E+00  0.00000000E+00  0.00000000E+00
  0.00000000E+00  0.00000000E+00  0.00000000E+00
  0.00000000E+00  0.00000000E+00  0.00000000E+00
  0.00000000E+00  0.00000000E+00  0.00000000E+00
  0.00000000E+00  0.00000000E+00  0.00000000E+00
  0.00000000E+00  0.00000000E+00  0.00000000E+00
  0.00000000E+00  0.00000000E+00  0.00000000E+00
  0.00000000E+00  0.00000000E+00  0.00000000E+00
  0.00000000E+00  0.00000000E+00  0.00000000E+00
