PREC = Medium
ENCUT = 400
SYSTEM = cristobalite (high) bulk
NWRITE = 2
NELM = 500
NLEMIN = 5
EDIFF = 10e-6
EDIFFG = -0.050
NSW = 20
ISIF = 2 
IBRION = 2
ISMEAR = 0
SIGMA = 0.05
LREAL = .TRUE.
GGA = 91
IALGO = 48
NSIM = 8
LPLANE = .TRUE.
LSCALU = .FALSE.
LCHARG = .FALSE.
LWAVE = .FALSE.
NCORE = 1
