Si O H                                  
 1.00000000000000000
    20.7673999999999985     .0000000000000000     .0000000000000000
   -10.3836999999999993   17.9850959999999986     .0000000000000000
      .0000000000000000     .0000000000000000   20.0000000000000000
  68 148  24
Direct
   .3267584150482818   .1715716462278465   .3747797735891467
   .8342869255613721   .1649669845235024   .3489496194726698
   .3342382252490452   .6655057138396998   .3492439627313217
   .8262422331380179   .6716593553745795   .3750330320926878
   .1651278168348043   .3326982150045268   .5641985204397031
   .6791285836170999   .3216826115474944   .5393691117025270
   .1787021985283417   .8221196689716592   .5380092394750804
   .6649233803976955   .8330723433826321   .5642241432921438
   .2545960438623567   .2463865011857607   .2826297762825973
   .7495837480028840   .2510311482156027   .3100981814262127
   .2507195299813958   .7507352636050442   .3081574379020040
   .7541144936366777   .7459445902111455   .2822766405309949
   .0029068912735895   .2652592065935337   .3016955261377348
   .4838694409256306   .2466833822415992   .3021168191488783
   .9833483500070557   .7465987413712298   .3021336260153404
   .5026673803063630   .7649757859144799   .3018332853065857
   .3227902263466618   .4107875592415056   .3363744673319005
   .8388861079875198   .4279865636867726   .3354309921209477
   .3385397881308521   .9278630691199012   .3334501460372152
   .8221606726846744   .9102741750901160   .3367375683086138
   .3227776062024788   .4081418940605630   .4885403678211020
   .8434536294826032   .4290638741783894   .4898915933800865
   .3433867994254243   .9292586274236214   .4885796028412628
   .8224776762483401   .9080683881758063   .4894555369673910
   .1486068586318723   .0731719063440863   .5535987747724533
   .6747362766081864   .0990423824804694   .5532547791669487
   .1748217028440777   .5993523272520065   .5533915565460887
   .6484425483946055   .5726621493923574   .5540399799429636
   .4237661601041012   .3502891894899918   .5538385889959514
   .8989405830709529   .3245587558994387   .5511484137468443
   .3984191943666957   .8248092193712040   .5515686370469268
   .9234903721228989   .8504153441596003   .5551626222488153
   .4186369647306805   .0887000728213039   .5640088290463225
   .9279942787660929   .0727133455872107   .5366961032071345
   .4283810022450467   .5731897934048646   .5349794870557645
   .9181108394142328   .5882190806841621   .5636254904961717
   .3247136731657463   .1740068093056735   .5358416499682406
   .8419602131730528   .1565398854996403   .5039883181271421
   .3422499946266839   .6570400307541107   .5039894626690753
   .8246400301636001   .6742476654047564   .5361165123246678
   .0884690042897915   .1752608594213854   .3322322501067276
   .5728806656431473   .1609337485159799   .3354463899963775
   .0733509370276408   .6608969520528234   .3332020342559758
   .5888103200338222   .6753554608058323   .3317909108446386
   .4989978251273257   .4968801769024722   .3110381400061968
   .0050930482084510   .4952088709796953   .2839057606895565
   .5051534054968201   .9957111602851967   .2840243910375762
   .9985091815198928   .9969257302114940   .3109012714430577
   .0922770016761660   .1749616896518944   .4867991153676101
   .5754285866334570   .1598953775314698   .4884769997803247
   .0756710628586390   .6598963250474057   .4870510182440171
   .5924607215676048   .6751904954396721   .4861065905686388
   .0794799532153689   .4214910441133028   .3749035598811332
   .5843870795133412   .4135889753366584   .3536421260559806
   .0837412281968568   .9134513191285905   .3535871547226819
   .5782193386967407   .9209973592707144   .3752646524483154
   .0760651712508746   .4230574251096755   .5359473457619188
   .5919834033886673   .4044084771167391   .5087126552779964
   .0912787878265249   .9046674225353115   .5086761156319000
   .5750135388143605   .9225494645632679   .5364450986633287
   .2356851125541226   .4974234542268974   .3010609833443922
   .7518751088388953   .5149087774960037   .3026159762218867
   .2510857186685413   .0147680516706927   .3021194014134565
   .7347541495298699   .9968111060718243   .3012925374106459
   .2472989559520187   .7509202490496989   .6344247300025074
   .4959225862822763   .5030827494495753   .6341261487985221
   .7485939967029296   .2504742504248938   .6348861062639699
   .9963454836512255   .0025974214477742   .6350501299693363
   .2936707088346537   .3359219103696134   .2923134354753003
   .7910107865806779   .3380288814423977   .3304984484136000
   .2911006662255673   .8380839369585118   .3268000485116431
   .7930270005549573   .8353269296200168   .2927682041860393
   .0411338404234201   .2136901119461996   .3073044915633361
   .5336615736695691   .2065450966081031   .3082783359076657
   .0329712026894740   .7062601634303221   .3083482323371101
   .5399240861959385   .7125898900708023   .3082708924659627
   .1672291194728572   .4630655494093432   .3539327348158707
   .6642111782269993   .4634008476468807   .3182976235366723
   .1636664870610858   .9632506412739303   .3185152384445473
   .6660202049636368   .9635409509486550   .3540246126393072
   .0402602844916800   .3334381808398064   .3558542246446521
   .5369329577693946   .3354676664999161   .3141582483308554
   .0367898243383209   .8353729635080285   .3139690738336398
   .5400906003178108   .8330708465704149   .3560150608157642
   .2878564086903310   .4601450635793540   .3086595902114908
   .7924316214094915   .4651676319909868   .3048309820927244
   .2916055314272299   .9650005720206210   .3040259322774972
   .7860661299821530   .9586579493303944   .3093494488844470
   .1648344215990676   .2079253898000815   .2901597558254210
   .6624898903076399   .2120041081496353   .3308316874903738
   .1627447776940798   .7121166301292661   .3254152600968396
   .6641226509473697   .7082851282325962   .2879364790061771
   .0134407218241321   .2995090092298298   .2260034889383107
   .4472603461493918   .2318371985168923   .2273781557032066
   .9464022137167305   .7316171485942746   .2275466774920432
   .5133381552827245   .7983627130751572   .2258389552912519
   .2855982562201476   .2101691617125852   .3371745537674684
   .7871767694055265   .2085081896256682   .3489169739889348
   .2871032062738479   .7092170793524204   .3508761766032507
   .7835887078150847   .7086702571547647   .3372609475961355
   .2750849510754136   .2352658054568479   .2067401408570149
   .7587067548351882   .2480068240613491   .2292789354016023
   .2639115036413102   .7464712626755130   .2281948364776696
   .7759748763575161   .7350673834248909   .2069041930454176
   .3731608940765270   .3698773340216945   .5049002358103536
   .8807950485286753   .3775639968032110   .5040735745000475
   .3807047300230622   .8777557887534613   .5038585929566395
   .8720870435036687   .8693220543986797   .5068784170441347
   .2945973734866243   .3863984892296486   .4125036598159610
   .8578975035459777   .4536884300842416   .4125803619166604
   .3573988547033551   .9522524197718880   .4108982766977860
   .7949936090158189   .8866946538781022   .4131431153554956
   .2501569850338896   .3803218896217331   .5358094406467941
   .7546107225989260   .3806426461131025   .5017672749216757
   .2544249581295759   .8814123544990125   .5009197230527107
   .7492672651690739   .8799714438401054   .5356970827463314
   .4127768706399522   .4592653682733498   .3349858956324780
   .9162396245900339   .4582782861956503   .2957917083874264
   .4158921165942502   .9593658366961719   .2933532189417747
   .9121227794518703   .9589850081418732   .3342495538504195
   .3193752009748181   .1800897160907411   .4549000220545665
   .8494067553090900   .1469848158374418   .4244104997191940
   .3496864444032042   .6472081290016547   .4245580079690470
   .8188284927213658   .6805691785628412   .4552272548142469
   .0860535175797281   .0469330270881514   .6140894309581029
   .7030467240766569   .1607314295975826   .6146101344687409
   .2028342836599109   .6610164825471543   .6149265029070392
   .5857608851195693   .5448300284169107   .6147487621324501
   .3699392159181372   .1294714161317287   .5489997056025544
   .8824500019313746   .1183527610846866   .5464623739984162
   .3831154404983153   .6189340411976261   .5461882078149287
   .8707420706463580   .6305011901809010   .5491091615053705
   .3712254903765384   .2594519758843532   .5686448761783751
   .8833099735380898   .2461179385112047   .5180365700484515
   .3832994379808667   .7465471362200589   .5183435395098925
   .8715123966600657   .7593486416941957   .5694561169676007
   .4292422351388936   .0862637368610137   .6445136617009766
   .9552273913094709   .0467120107798493   .6034770171717980
   .4558515791062163   .5473996140815629   .6019054312973395
   .9242441470553118   .5807544052807856   .6441408016899430
   .2393949858134476   .1253237250731232   .5684347083838830
   .7527608836765509   .1139277830859129   .5197949701077320
   .2530869066823485   .6142916531532236   .5203154824134870
   .7392093047207950   .6252834394684967   .5685697541129997
   .4502979556648512   .4133493224090401   .6141516376546932
   .8369754229648763   .2967323856053454   .6121222630618206
   .3359428817323362   .7970527962060103   .6121888186628723
   .9504619884990575   .9134906907851530   .6150852589470475
   .5038051927237674   .4853612991838219   .2308345696133429
   .0207580456684582   .4799682216400143   .2075750596153298
   .5230307053474093   .9820832421698000   .2079103621078815
   .0041097796110634   .9861469459804866   .2307323764642391
   .1351680501275965   .9941506260649575   .5236367032999283
   .6229388282145578   .0083112748161582   .5682939125985911
   .1234270723380320   .5086507903983133   .5684745503050408
   .6353433224471843   .4939562913083009   .5236317095518643
   .5028697713955168   .1348273859793068   .5350448233646645
   .0027827746474927   .1269041858086553   .4953944403934400
   .5024859064644716   .6271861811037169   .4927293175947156
   .0017079187639197   .6345827067557863   .5317351119616802
   .1296776151656758   .1241764814010011   .5046400873170214
   .6223882690943796   .1188377942755281   .5070745189874160
   .1226538177962908   .6192478330712063   .5073279769924355
   .6283227201592467   .6236279383382950   .5062180385054447
   .1246151183951909   .2502861992009002   .5309997994765752
   .6294506299322080   .2493559579602902   .4930105979314874
   .1290682136602612   .7495760256040072   .4919508289042227
   .6234200331197570   .7502518891246268   .5304303190051698
   .0404306997685779   .0856207738664594   .3244162521261629
   .5461101002502247   .0854786712825160   .2926273342283423
   .0448788525370318   .5850133201187830   .2908027053736646
   .5412666695047790   .5856355870086531   .3241226998189504
   .1106684873995718   .1978080115198466   .4095455588646217
   .5474646488670771   .1382279364970316   .4123505434501169
   .0508230627599957   .6379156373484136   .4104042986047318
   .6128793401232571   .6980811386676464   .4089524168504042
   .9897554898807570   .3754438404571161   .5658195747204999
   .5027791891186837   .3639238825069384   .5242056247025104
   .0024048725230799   .8644149044702090   .5247735330369352
   .4889332822762285   .8753325197149522   .5678975174508096
   .0385357734644174   .4602231157574792   .3372590578822781
   .5388416085297152   .4587820833188161   .3536303183570695
   .0380893966518130   .9584797853213303   .3534102448080958
   .5360156092590103   .9586514439579332   .3377833080209598
   .1201254943879277   .3778604230495262   .5517582460389789
   .6303914241406190   .3639609926149703   .5511489574787447
   .1299922763987311   .8641431334352916   .5504180685707354
   .6176674398187743   .8758901129054451   .5515852885982184
   .0730246790203708   .4301820528465896   .4549864892629216
   .5988618747370538   .3951590028297431   .4291864385258322
   .0976632406624915   .8949003332819814   .4292286989911105
   .5710608489516176   .9290391805521310   .4554397908504555
   .2875658585084508   .0837197652479560   .3550476161925147
   .7868757992302164   .0863750255078557   .3096774799705244
   .2866511222813415   .5870218509121088   .3098498317821097
   .7879967499561999   .5837520253584927   .3556839809841392
   .1972872247954314   .4784184579269919   .2267215385771379
   .7604050379418794   .5488232358712253   .2270734269768155
   .2583450742120448   .0484239394690746   .2265647508923792
   .6966321603706618   .9773444670118963   .2268035189532398
   .1673273361087766   .3184041347518800   .6440753621748243
   .7039006445206795   .2916259199790758   .6050303725441069
   .2029727832384722   .7920137456675889   .6039080085888173
   .6743938187578422   .8261338517694838   .6441813945746873
   .3781541641119546   .0046284867574755   .5328639363220660
   .8736715011592224   .9977084351550616   .4955028512473305
   .3736484809479350   .4979269633670071   .4943562123552638
   .8783629565399664   .5037011294300271   .5350921320548707
   .4145493990995917   .2127641807547747   .3542294501443095
   .9140077104105444   .2161202774504716   .3131372151445291
   .4137031353766076   .7163678929315296   .3130720907312678
   .9140455341623337   .7135044377165727   .3542666771996750
   .2473822106256733   .7564689705499106   .7153390045305059
   .4884871365135552   .5094820895997145   .7144246534443681
   .7503462140590145   .2547963345454178   .7159091008265932
   .9915354457392951   .0023237510958225   .7159735137087395
   .0623602520586957   .3199094191013856   .2058215085130684
   .4796455719607025   .2414530356748728   .1891843951159942
   .9782325860242338   .7413555292102672   .1889294240381858
   .5626365548318333   .8200443702707574   .2061746410630221
   .2658576086284441   .1862688992558006   .1937239192518589
   .7333015349143537   .2001821112612703   .2068836636753559
   .2360812172535773   .6989381446126330   .2056221663678741
   .7681591217509620   .6865040372113853   .1942066812151992
   .4742372226267904   .4358236454100890   .2121773222889729
   .0080222453785979   .4295441047174648   .1957914201038875
   .5096305418379075   .9317248498090436   .1951979883289994
   .9747144185546261   .9366777021206047   .2119201705469891
   .2853972790158039   .0368576625469643   .1936777134779817
   .7291554957510371   .9951377892170399   .1881218577460757
   .2296589729915013   .4963381581964228   .1879644604533652
   .7866511550653073   .5361493508325594   .1942500047866247
   .2167500971557956   .7114169153493393   .7405378881367639
   .5051689818397378   .4836284747080697   .7438467373002382
   .7141475501880024   .2115867527290263   .7405929862540077
   .3861261537689629   .0680511764592140   .6734090799443138
   .6307871867874226   .7974701068750107   .6717511793184627
   .9283528661128813   .6202280850809672   .6728598842363809
   .1961751908577511   .3605402444773205   .6731891254655622
   .0211600778383811   .0486090547586073   .7399051408226640
 
   .00000000E+00   .00000000E+00   .00000000E+00
   .00000000E+00   .00000000E+00   .00000000E+00
   .00000000E+00   .00000000E+00   .00000000E+00
   .00000000E+00   .00000000E+00   .00000000E+00
   .00000000E+00   .00000000E+00   .00000000E+00
   .00000000E+00   .00000000E+00   .00000000E+00
   .00000000E+00   .00000000E+00   .00000000E+00
   .00000000E+00   .00000000E+00   .00000000E+00
   .00000000E+00   .00000000E+00   .00000000E+00
   .00000000E+00   .00000000E+00   .00000000E+00
   .00000000E+00   .00000000E+00   .00000000E+00
   .00000000E+00   .00000000E+00   .00000000E+00
   .00000000E+00   .00000000E+00   .00000000E+00
   .00000000E+00   .00000000E+00   .00000000E+00
   .00000000E+00   .00000000E+00   .00000000E+00
   .00000000E+00   .00000000E+00   .00000000E+00
   .00000000E+00   .00000000E+00   .00000000E+00
   .00000000E+00   .00000000E+00   .00000000E+00
   .00000000E+00   .00000000E+00   .00000000E+00
   .00000000E+00   .00000000E+00   .00000000E+00
   .00000000E+00   .00000000E+00   .00000000E+00
   .00000000E+00   .00000000E+00   .00000000E+00
   .00000000E+00   .00000000E+00   .00000000E+00
   .00000000E+00   .00000000E+00   .00000000E+00
   .00000000E+00   .00000000E+00   .00000000E+00
   .00000000E+00   .00000000E+00   .00000000E+00
   .00000000E+00   .00000000E+00   .00000000E+00
   .00000000E+00   .00000000E+00   .00000000E+00
   .00000000E+00   .00000000E+00   .00000000E+00
   .00000000E+00   .00000000E+00   .00000000E+00
   .00000000E+00   .00000000E+00   .00000000E+00
   .00000000E+00   .00000000E+00   .00000000E+00
   .00000000E+00   .00000000E+00   .00000000E+00
   .00000000E+00   .00000000E+00   .00000000E+00
   .00000000E+00   .00000000E+00   .00000000E+00
   .00000000E+00   .00000000E+00   .00000000E+00
   .00000000E+00   .00000000E+00   .00000000E+00
   .00000000E+00   .00000000E+00   .00000000E+00
   .00000000E+00   .00000000E+00   .00000000E+00
   .00000000E+00   .00000000E+00   .00000000E+00
   .00000000E+00   .00000000E+00   .00000000E+00
   .00000000E+00   .00000000E+00   .00000000E+00
   .00000000E+00   .00000000E+00   .00000000E+00
   .00000000E+00   .00000000E+00   .00000000E+00
   .00000000E+00   .00000000E+00   .00000000E+00
   .00000000E+00   .00000000E+00   .00000000E+00
   .00000000E+00   .00000000E+00   .00000000E+00
   .00000000E+00   .00000000E+00   .00000000E+00
   .00000000E+00   .00000000E+00   .00000000E+00
   .00000000E+00   .00000000E+00   .00000000E+00
   .00000000E+00   .00000000E+00   .00000000E+00
   .00000000E+00   .00000000E+00   .00000000E+00
   .00000000E+00   .00000000E+00   .00000000E+00
   .00000000E+00   .00000000E+00   .00000000E+00
   .00000000E+00   .00000000E+00   .00000000E+00
   .00000000E+00   .00000000E+00   .00000000E+00
   .00000000E+00   .00000000E+00   .00000000E+00
   .00000000E+00   .00000000E+00   .00000000E+00
   .00000000E+00   .00000000E+00   .00000000E+00
   .00000000E+00   .00000000E+00   .00000000E+00
   .00000000E+00   .00000000E+00   .00000000E+00
   .00000000E+00   .00000000E+00   .00000000E+00
   .00000000E+00   .00000000E+00   .00000000E+00
   .00000000E+00   .00000000E+00   .00000000E+00
   .00000000E+00   .00000000E+00   .00000000E+00
   .00000000E+00   .00000000E+00   .00000000E+00
   .00000000E+00   .00000000E+00   .00000000E+00
   .00000000E+00   .00000000E+00   .00000000E+00
   .00000000E+00   .00000000E+00   .00000000E+00
   .00000000E+00   .00000000E+00   .00000000E+00
   .00000000E+00   .00000000E+00   .00000000E+00
   .00000000E+00   .00000000E+00   .00000000E+00
   .00000000E+00   .00000000E+00   .00000000E+00
   .00000000E+00   .00000000E+00   .00000000E+00
   .00000000E+00   .00000000E+00   .00000000E+00
   .00000000E+00   .00000000E+00   .00000000E+00
   .00000000E+00   .00000000E+00   .00000000E+00
   .00000000E+00   .00000000E+00   .00000000E+00
   .00000000E+00   .00000000E+00   .00000000E+00
   .00000000E+00   .00000000E+00   .00000000E+00
   .00000000E+00   .00000000E+00   .00000000E+00
   .00000000E+00   .00000000E+00   .00000000E+00
   .00000000E+00   .00000000E+00   .00000000E+00
   .00000000E+00   .00000000E+00   .00000000E+00
   .00000000E+00   .00000000E+00   .00000000E+00
   .00000000E+00   .00000000E+00   .00000000E+00
   .00000000E+00   .00000000E+00   .00000000E+00
   .00000000E+00   .00000000E+00   .00000000E+00
   .00000000E+00   .00000000E+00   .00000000E+00
   .00000000E+00   .00000000E+00   .00000000E+00
   .00000000E+00   .00000000E+00   .00000000E+00
   .00000000E+00   .00000000E+00   .00000000E+00
   .00000000E+00   .00000000E+00   .00000000E+00
   .00000000E+00   .00000000E+00   .00000000E+00
   .00000000E+00   .00000000E+00   .00000000E+00
   .00000000E+00   .00000000E+00   .00000000E+00
   .00000000E+00   .00000000E+00   .00000000E+00
   .00000000E+00   .00000000E+00   .00000000E+00
   .00000000E+00   .00000000E+00   .00000000E+00
   .00000000E+00   .00000000E+00   .00000000E+00
   .00000000E+00   .00000000E+00   .00000000E+00
   .00000000E+00   .00000000E+00   .00000000E+00
   .00000000E+00   .00000000E+00   .00000000E+00
   .00000000E+00   .00000000E+00   .00000000E+00
   .00000000E+00   .00000000E+00   .00000000E+00
   .00000000E+00   .00000000E+00   .00000000E+00
   .00000000E+00   .00000000E+00   .00000000E+00
   .00000000E+00   .00000000E+00   .00000000E+00
   .00000000E+00   .00000000E+00   .00000000E+00
   .00000000E+00   .00000000E+00   .00000000E+00
   .00000000E+00   .00000000E+00   .00000000E+00
   .00000000E+00   .00000000E+00   .00000000E+00
   .00000000E+00   .00000000E+00   .00000000E+00
   .00000000E+00   .00000000E+00   .00000000E+00
   .00000000E+00   .00000000E+00   .00000000E+00
   .00000000E+00   .00000000E+00   .00000000E+00
   .00000000E+00   .00000000E+00   .00000000E+00
   .00000000E+00   .00000000E+00   .00000000E+00
   .00000000E+00   .00000000E+00   .00000000E+00
   .00000000E+00   .00000000E+00   .00000000E+00
   .00000000E+00   .00000000E+00   .00000000E+00
   .00000000E+00   .00000000E+00   .00000000E+00
   .00000000E+00   .00000000E+00   .00000000E+00
   .00000000E+00   .00000000E+00   .00000000E+00
   .00000000E+00   .00000000E+00   .00000000E+00
   .00000000E+00   .00000000E+00   .00000000E+00
   .00000000E+00   .00000000E+00   .00000000E+00
   .00000000E+00   .00000000E+00   .00000000E+00
   .00000000E+00   .00000000E+00   .00000000E+00
   .00000000E+00   .00000000E+00   .00000000E+00
   .00000000E+00   .00000000E+00   .00000000E+00
   .00000000E+00   .00000000E+00   .00000000E+00
   .00000000E+00   .00000000E+00   .00000000E+00
   .00000000E+00   .00000000E+00   .00000000E+00
   .00000000E+00   .00000000E+00   .00000000E+00
   .00000000E+00   .00000000E+00   .00000000E+00
   .00000000E+00   .00000000E+00   .00000000E+00
   .00000000E+00   .00000000E+00   .00000000E+00
   .00000000E+00   .00000000E+00   .00000000E+00
   .00000000E+00   .00000000E+00   .00000000E+00
   .00000000E+00   .00000000E+00   .00000000E+00
   .00000000E+00   .00000000E+00   .00000000E+00
   .00000000E+00   .00000000E+00   .00000000E+00
   .00000000E+00   .00000000E+00   .00000000E+00
   .00000000E+00   .00000000E+00   .00000000E+00
   .00000000E+00   .00000000E+00   .00000000E+00
   .00000000E+00   .00000000E+00   .00000000E+00
   .00000000E+00   .00000000E+00   .00000000E+00
   .00000000E+00   .00000000E+00   .00000000E+00
   .00000000E+00   .00000000E+00   .00000000E+00
   .00000000E+00   .00000000E+00   .00000000E+00
   .00000000E+00   .00000000E+00   .00000000E+00
   .00000000E+00   .00000000E+00   .00000000E+00
   .00000000E+00   .00000000E+00   .00000000E+00
   .00000000E+00   .00000000E+00   .00000000E+00
   .00000000E+00   .00000000E+00   .00000000E+00
   .00000000E+00   .00000000E+00   .00000000E+00
   .00000000E+00   .00000000E+00   .00000000E+00
   .00000000E+00   .00000000E+00   .00000000E+00
   .00000000E+00   .00000000E+00   .00000000E+00
   .00000000E+00   .00000000E+00   .00000000E+00
   .00000000E+00   .00000000E+00   .00000000E+00
   .00000000E+00   .00000000E+00   .00000000E+00
   .00000000E+00   .00000000E+00   .00000000E+00
   .00000000E+00   .00000000E+00   .00000000E+00
   .00000000E+00   .00000000E+00   .00000000E+00
   .00000000E+00   .00000000E+00   .00000000E+00
   .00000000E+00   .00000000E+00   .00000000E+00
   .00000000E+00   .00000000E+00   .00000000E+00
   .00000000E+00   .00000000E+00   .00000000E+00
   .00000000E+00   .00000000E+00   .00000000E+00
   .00000000E+00   .00000000E+00   .00000000E+00
   .00000000E+00   .00000000E+00   .00000000E+00
   .00000000E+00   .00000000E+00   .00000000E+00
   .00000000E+00   .00000000E+00   .00000000E+00
   .00000000E+00   .00000000E+00   .00000000E+00
   .00000000E+00   .00000000E+00   .00000000E+00
   .00000000E+00   .00000000E+00   .00000000E+00
   .00000000E+00   .00000000E+00   .00000000E+00
   .00000000E+00   .00000000E+00   .00000000E+00
   .00000000E+00   .00000000E+00   .00000000E+00
   .00000000E+00   .00000000E+00   .00000000E+00
   .00000000E+00   .00000000E+00   .00000000E+00
   .00000000E+00   .00000000E+00   .00000000E+00
   .00000000E+00   .00000000E+00   .00000000E+00
   .00000000E+00   .00000000E+00   .00000000E+00
   .00000000E+00   .00000000E+00   .00000000E+00
   .00000000E+00   .00000000E+00   .00000000E+00
   .00000000E+00   .00000000E+00   .00000000E+00
   .00000000E+00   .00000000E+00   .00000000E+00
   .00000000E+00   .00000000E+00   .00000000E+00
   .00000000E+00   .00000000E+00   .00000000E+00
   .00000000E+00   .00000000E+00   .00000000E+00
   .00000000E+00   .00000000E+00   .00000000E+00
   .00000000E+00   .00000000E+00   .00000000E+00
   .00000000E+00   .00000000E+00   .00000000E+00
   .00000000E+00   .00000000E+00   .00000000E+00
   .00000000E+00   .00000000E+00   .00000000E+00
   .00000000E+00   .00000000E+00   .00000000E+00
   .00000000E+00   .00000000E+00   .00000000E+00
   .00000000E+00   .00000000E+00   .00000000E+00
   .00000000E+00   .00000000E+00   .00000000E+00
   .00000000E+00   .00000000E+00   .00000000E+00
   .00000000E+00   .00000000E+00   .00000000E+00
   .00000000E+00   .00000000E+00   .00000000E+00
   .00000000E+00   .00000000E+00   .00000000E+00
   .00000000E+00   .00000000E+00   .00000000E+00
   .00000000E+00   .00000000E+00   .00000000E+00
   .00000000E+00   .00000000E+00   .00000000E+00
   .00000000E+00   .00000000E+00   .00000000E+00
   .00000000E+00   .00000000E+00   .00000000E+00
   .00000000E+00   .00000000E+00   .00000000E+00
   .00000000E+00   .00000000E+00   .00000000E+00
   .00000000E+00   .00000000E+00   .00000000E+00
   .00000000E+00   .00000000E+00   .00000000E+00
   .00000000E+00   .00000000E+00   .00000000E+00
   .00000000E+00   .00000000E+00   .00000000E+00
   .00000000E+00   .00000000E+00   .00000000E+00
   .00000000E+00   .00000000E+00   .00000000E+00
   .00000000E+00   .00000000E+00   .00000000E+00
   .00000000E+00   .00000000E+00   .00000000E+00
   .00000000E+00   .00000000E+00   .00000000E+00
   .00000000E+00   .00000000E+00   .00000000E+00
   .00000000E+00   .00000000E+00   .00000000E+00
   .00000000E+00   .00000000E+00   .00000000E+00
   .00000000E+00   .00000000E+00   .00000000E+00
   .00000000E+00   .00000000E+00   .00000000E+00
   .00000000E+00   .00000000E+00   .00000000E+00
   .00000000E+00   .00000000E+00   .00000000E+00
   .00000000E+00   .00000000E+00   .00000000E+00
   .00000000E+00   .00000000E+00   .00000000E+00
   .00000000E+00   .00000000E+00   .00000000E+00
   .00000000E+00   .00000000E+00   .00000000E+00
   .00000000E+00   .00000000E+00   .00000000E+00
   .00000000E+00   .00000000E+00   .00000000E+00
   .00000000E+00   .00000000E+00   .00000000E+00
   .00000000E+00   .00000000E+00   .00000000E+00
   .00000000E+00   .00000000E+00   .00000000E+00
   .00000000E+00   .00000000E+00   .00000000E+00
   .00000000E+00   .00000000E+00   .00000000E+00
