Si
21.72408202
-0.5 0.0 0.5
 0.0 1.0 1.0
-1.0 1.0 0.0
512
Direct
0	0	0
0.0625	0.03125	0.03125
0	0	0.125
0.0625	0.03125	0.15625
0	0	0.25
0.0625	0.03125	0.28125
0	0	0.375
0.0625	0.03125	0.40625
0	0	0.5
0.0625	0.03125	0.53125
0	0	0.625
0.0625	0.03125	0.65625
0	0	0.75
0.0625	0.03125	0.78125
0	0	0.875
0.0625	0.03125	0.90625
0	0.125	0
0.0625	0.15625	0.03125
0	0.125	0.125
0.0625	0.15625	0.15625
0	0.125	0.25
0.0625	0.15625	0.28125
0	0.125	0.375
0.0625	0.15625	0.40625
0	0.125	0.5
0.0625	0.15625	0.53125
0	0.125	0.625
0.0625	0.15625	0.65625
0	0.125	0.75
0.0625	0.15625	0.78125
0	0.125	0.875
0.0625	0.15625	0.90625
0	0.25	0
0.0625	0.28125	0.03125
0	0.25	0.125
0.0625	0.28125	0.15625
0	0.25	0.25
0.0625	0.28125	0.28125
0	0.25	0.375
0.0625	0.28125	0.40625
0	0.25	0.5
0.0625	0.28125	0.53125
0	0.25	0.625
0.0625	0.28125	0.65625
0	0.25	0.75
0.0625	0.28125	0.78125
0	0.25	0.875
0.0625	0.28125	0.90625
0	0.375	0
0.0625	0.40625	0.03125
0	0.375	0.125
0.0625	0.40625	0.15625
0	0.375	0.25
0.0625	0.40625	0.28125
0	0.375	0.375
0.0625	0.40625	0.40625
0	0.375	0.5
0.0625	0.40625	0.53125
0	0.375	0.625
0.0625	0.40625	0.65625
0	0.375	0.75
0.0625	0.40625	0.78125
0	0.375	0.875
0.0625	0.40625	0.90625
0	0.5	0
0.0625	0.53125	0.03125
0	0.5	0.125
0.0625	0.53125	0.15625
0	0.5	0.25
0.0625	0.53125	0.28125
0	0.5	0.375
0.0625	0.53125	0.40625
0	0.5	0.5
0.0625	0.53125	0.53125
0	0.5	0.625
0.0625	0.53125	0.65625
0	0.5	0.75
0.0625	0.53125	0.78125
0	0.5	0.875
0.0625	0.53125	0.90625
0	0.625	0
0.0625	0.65625	0.03125
0	0.625	0.125
0.0625	0.65625	0.15625
0	0.625	0.25
0.0625	0.65625	0.28125
0	0.625	0.375
0.0625	0.65625	0.40625
0	0.625	0.5
0.0625	0.65625	0.53125
0	0.625	0.625
0.0625	0.65625	0.65625
0	0.625	0.75
0.0625	0.65625	0.78125
0	0.625	0.875
0.0625	0.65625	0.90625
0	0.75	0
0.0625	0.78125	0.03125
0	0.75	0.125
0.0625	0.78125	0.15625
0	0.75	0.25
0.0625	0.78125	0.28125
0	0.75	0.375
0.0625	0.78125	0.40625
0	0.75	0.5
0.0625	0.78125	0.53125
0	0.75	0.625
0.0625	0.78125	0.65625
0	0.75	0.75
0.0625	0.78125	0.78125
0	0.75	0.875
0.0625	0.78125	0.90625
0	0.875	0
0.0625	0.90625	0.03125
0	0.875	0.125
0.0625	0.90625	0.15625
0	0.875	0.25
0.0625	0.90625	0.28125
0	0.875	0.375
0.0625	0.90625	0.40625
0	0.875	0.5
0.0625	0.90625	0.53125
0	0.875	0.625
0.0625	0.90625	0.65625
0	0.875	0.75
0.0625	0.90625	0.78125
0	0.875	0.875
0.0625	0.90625	0.90625
0.25	0	0
0.3125	0.03125	0.03125
0.25	0	0.125
0.3125	0.03125	0.15625
0.25	0	0.25
0.3125	0.03125	0.28125
0.25	0	0.375
0.3125	0.03125	0.40625
0.25	0	0.5
0.3125	0.03125	0.53125
0.25	0	0.625
0.3125	0.03125	0.65625
0.25	0	0.75
0.3125	0.03125	0.78125
0.25	0	0.875
0.3125	0.03125	0.90625
0.25	0.125	0
0.3125	0.15625	0.03125
0.25	0.125	0.125
0.3125	0.15625	0.15625
0.25	0.125	0.25
0.3125	0.15625	0.28125
0.25	0.125	0.375
0.3125	0.15625	0.40625
0.25	0.125	0.5
0.3125	0.15625	0.53125
0.25	0.125	0.625
0.3125	0.15625	0.65625
0.25	0.125	0.75
0.3125	0.15625	0.78125
0.25	0.125	0.875
0.3125	0.15625	0.90625
0.25	0.25	0
0.3125	0.28125	0.03125
0.25	0.25	0.125
0.3125	0.28125	0.15625
0.25	0.25	0.25
0.3125	0.28125	0.28125
0.25	0.25	0.375
0.3125	0.28125	0.40625
0.25	0.25	0.5
0.3125	0.28125	0.53125
0.25	0.25	0.625
0.3125	0.28125	0.65625
0.25	0.25	0.75
0.3125	0.28125	0.78125
0.25	0.25	0.875
0.3125	0.28125	0.90625
0.25	0.375	0
0.3125	0.40625	0.03125
0.25	0.375	0.125
0.3125	0.40625	0.15625
0.25	0.375	0.25
0.3125	0.40625	0.28125
0.25	0.375	0.375
0.3125	0.40625	0.40625
0.25	0.375	0.5
0.3125	0.40625	0.53125
0.25	0.375	0.625
0.3125	0.40625	0.65625
0.25	0.375	0.75
0.3125	0.40625	0.78125
0.25	0.375	0.875
0.3125	0.40625	0.90625
0.25	0.5	0
0.3125	0.53125	0.03125
0.25	0.5	0.125
0.3125	0.53125	0.15625
0.25	0.5	0.25
0.3125	0.53125	0.28125
0.25	0.5	0.375
0.3125	0.53125	0.40625
0.25	0.5	0.5
0.3125	0.53125	0.53125
0.25	0.5	0.625
0.3125	0.53125	0.65625
0.25	0.5	0.75
0.3125	0.53125	0.78125
0.25	0.5	0.875
0.3125	0.53125	0.90625
0.25	0.625	0
0.3125	0.65625	0.03125
0.25	0.625	0.125
0.3125	0.65625	0.15625
0.25	0.625	0.25
0.3125	0.65625	0.28125
0.25	0.625	0.375
0.3125	0.65625	0.40625
0.25	0.625	0.5
0.3125	0.65625	0.53125
0.25	0.625	0.625
0.3125	0.65625	0.65625
0.25	0.625	0.75
0.3125	0.65625	0.78125
0.25	0.625	0.875
0.3125	0.65625	0.90625
0.25	0.75	0
0.3125	0.78125	0.03125
0.25	0.75	0.125
0.3125	0.78125	0.15625
0.25	0.75	0.25
0.3125	0.78125	0.28125
0.25	0.75	0.375
0.3125	0.78125	0.40625
0.25	0.75	0.5
0.3125	0.78125	0.53125
0.25	0.75	0.625
0.3125	0.78125	0.65625
0.25	0.75	0.75
0.3125	0.78125	0.78125
0.25	0.75	0.875
0.3125	0.78125	0.90625
0.25	0.875	0
0.3125	0.90625	0.03125
0.25	0.875	0.125
0.3125	0.90625	0.15625
0.25	0.875	0.25
0.3125	0.90625	0.28125
0.25	0.875	0.375
0.3125	0.90625	0.40625
0.25	0.875	0.5
0.3125	0.90625	0.53125
0.25	0.875	0.625
0.3125	0.90625	0.65625
0.25	0.875	0.75
0.3125	0.90625	0.78125
0.25	0.875	0.875
0.3125	0.90625	0.90625
0.5	0	0
0.5625	0.03125	0.03125
0.5	0	0.125
0.5625	0.03125	0.15625
0.5	0	0.25
0.5625	0.03125	0.28125
0.5	0	0.375
0.5625	0.03125	0.40625
0.5	0	0.5
0.5625	0.03125	0.53125
0.5	0	0.625
0.5625	0.03125	0.65625
0.5	0	0.75
0.5625	0.03125	0.78125
0.5	0	0.875
0.5625	0.03125	0.90625
0.5	0.125	0
0.5625	0.15625	0.03125
0.5	0.125	0.125
0.5625	0.15625	0.15625
0.5	0.125	0.25
0.5625	0.15625	0.28125
0.5	0.125	0.375
0.5625	0.15625	0.40625
0.5	0.125	0.5
0.5625	0.15625	0.53125
0.5	0.125	0.625
0.5625	0.15625	0.65625
0.5	0.125	0.75
0.5625	0.15625	0.78125
0.5	0.125	0.875
0.5625	0.15625	0.90625
0.5	0.25	0
0.5625	0.28125	0.03125
0.5	0.25	0.125
0.5625	0.28125	0.15625
0.5	0.25	0.25
0.5625	0.28125	0.28125
0.5	0.25	0.375
0.5625	0.28125	0.40625
0.5	0.25	0.5
0.5625	0.28125	0.53125
0.5	0.25	0.625
0.5625	0.28125	0.65625
0.5	0.25	0.75
0.5625	0.28125	0.78125
0.5	0.25	0.875
0.5625	0.28125	0.90625
0.5	0.375	0
0.5625	0.40625	0.03125
0.5	0.375	0.125
0.5625	0.40625	0.15625
0.5	0.375	0.25
0.5625	0.40625	0.28125
0.5	0.375	0.375
0.5625	0.40625	0.40625
0.5	0.375	0.5
0.5625	0.40625	0.53125
0.5	0.375	0.625
0.5625	0.40625	0.65625
0.5	0.375	0.75
0.5625	0.40625	0.78125
0.5	0.375	0.875
0.5625	0.40625	0.90625
0.5	0.5	0
0.5625	0.53125	0.03125
0.5	0.5	0.125
0.5625	0.53125	0.15625
0.5	0.5	0.25
0.5625	0.53125	0.28125
0.5	0.5	0.375
0.5625	0.53125	0.40625
0.5	0.5	0.5
0.5625	0.53125	0.53125
0.5	0.5	0.625
0.5625	0.53125	0.65625
0.5	0.5	0.75
0.5625	0.53125	0.78125
0.5	0.5	0.875
0.5625	0.53125	0.90625
0.5	0.625	0
0.5625	0.65625	0.03125
0.5	0.625	0.125
0.5625	0.65625	0.15625
0.5	0.625	0.25
0.5625	0.65625	0.28125
0.5	0.625	0.375
0.5625	0.65625	0.40625
0.5	0.625	0.5
0.5625	0.65625	0.53125
0.5	0.625	0.625
0.5625	0.65625	0.65625
0.5	0.625	0.75
0.5625	0.65625	0.78125
0.5	0.625	0.875
0.5625	0.65625	0.90625
0.5	0.75	0
0.5625	0.78125	0.03125
0.5	0.75	0.125
0.5625	0.78125	0.15625
0.5	0.75	0.25
0.5625	0.78125	0.28125
0.5	0.75	0.375
0.5625	0.78125	0.40625
0.5	0.75	0.5
0.5625	0.78125	0.53125
0.5	0.75	0.625
0.5625	0.78125	0.65625
0.5	0.75	0.75
0.5625	0.78125	0.78125
0.5	0.75	0.875
0.5625	0.78125	0.90625
0.5	0.875	0
0.5625	0.90625	0.03125
0.5	0.875	0.125
0.5625	0.90625	0.15625
0.5	0.875	0.25
0.5625	0.90625	0.28125
0.5	0.875	0.375
0.5625	0.90625	0.40625
0.5	0.875	0.5
0.5625	0.90625	0.53125
0.5	0.875	0.625
0.5625	0.90625	0.65625
0.5	0.875	0.75
0.5625	0.90625	0.78125
0.5	0.875	0.875
0.5625	0.90625	0.90625
0.75	0	0
0.8125	0.03125	0.03125
0.75	0	0.125
0.8125	0.03125	0.15625
0.75	0	0.25
0.8125	0.03125	0.28125
0.75	0	0.375
0.8125	0.03125	0.40625
0.75	0	0.5
0.8125	0.03125	0.53125
0.75	0	0.625
0.8125	0.03125	0.65625
0.75	0	0.75
0.8125	0.03125	0.78125
0.75	0	0.875
0.8125	0.03125	0.90625
0.75	0.125	0
0.8125	0.15625	0.03125
0.75	0.125	0.125
0.8125	0.15625	0.15625
0.75	0.125	0.25
0.8125	0.15625	0.28125
0.75	0.125	0.375
0.8125	0.15625	0.40625
0.75	0.125	0.5
0.8125	0.15625	0.53125
0.75	0.125	0.625
0.8125	0.15625	0.65625
0.75	0.125	0.75
0.8125	0.15625	0.78125
0.75	0.125	0.875
0.8125	0.15625	0.90625
0.75	0.25	0
0.8125	0.28125	0.03125
0.75	0.25	0.125
0.8125	0.28125	0.15625
0.75	0.25	0.25
0.8125	0.28125	0.28125
0.75	0.25	0.375
0.8125	0.28125	0.40625
0.75	0.25	0.5
0.8125	0.28125	0.53125
0.75	0.25	0.625
0.8125	0.28125	0.65625
0.75	0.25	0.75
0.8125	0.28125	0.78125
0.75	0.25	0.875
0.8125	0.28125	0.90625
0.75	0.375	0
0.8125	0.40625	0.03125
0.75	0.375	0.125
0.8125	0.40625	0.15625
0.75	0.375	0.25
0.8125	0.40625	0.28125
0.75	0.375	0.375
0.8125	0.40625	0.40625
0.75	0.375	0.5
0.8125	0.40625	0.53125
0.75	0.375	0.625
0.8125	0.40625	0.65625
0.75	0.375	0.75
0.8125	0.40625	0.78125
0.75	0.375	0.875
0.8125	0.40625	0.90625
0.75	0.5	0
0.8125	0.53125	0.03125
0.75	0.5	0.125
0.8125	0.53125	0.15625
0.75	0.5	0.25
0.8125	0.53125	0.28125
0.75	0.5	0.375
0.8125	0.53125	0.40625
0.75	0.5	0.5
0.8125	0.53125	0.53125
0.75	0.5	0.625
0.8125	0.53125	0.65625
0.75	0.5	0.75
0.8125	0.53125	0.78125
0.75	0.5	0.875
0.8125	0.53125	0.90625
0.75	0.625	0
0.8125	0.65625	0.03125
0.75	0.625	0.125
0.8125	0.65625	0.15625
0.75	0.625	0.25
0.8125	0.65625	0.28125
0.75	0.625	0.375
0.8125	0.65625	0.40625
0.75	0.625	0.5
0.8125	0.65625	0.53125
0.75	0.625	0.625
0.8125	0.65625	0.65625
0.75	0.625	0.75
0.8125	0.65625	0.78125
0.75	0.625	0.875
0.8125	0.65625	0.90625
0.75	0.75	0
0.8125	0.78125	0.03125
0.75	0.75	0.125
0.8125	0.78125	0.15625
0.75	0.75	0.25
0.8125	0.78125	0.28125
0.75	0.75	0.375
0.8125	0.78125	0.40625
0.75	0.75	0.5
0.8125	0.78125	0.53125
0.75	0.75	0.625
0.8125	0.78125	0.65625
0.75	0.75	0.75
0.8125	0.78125	0.78125
0.75	0.75	0.875
0.8125	0.78125	0.90625
0.75	0.875	0
0.8125	0.90625	0.03125
0.75	0.875	0.125
0.8125	0.90625	0.15625
0.75	0.875	0.25
0.8125	0.90625	0.28125
0.75	0.875	0.375
0.8125	0.90625	0.40625
0.75	0.875	0.5
0.8125	0.90625	0.53125
0.75	0.875	0.625
0.8125	0.90625	0.65625
0.75	0.875	0.75
0.8125	0.90625	0.78125
0.75	0.875	0.875
0.8125	0.90625	0.90625
